(declare-fun temp169_2 () (_ BitVec 64))
(declare-fun temp169_1 () (_ BitVec 64))
(declare-fun temp169_4 () (_ BitVec 64))
(declare-fun temp169_3 () (_ BitVec 64))
(declare-fun temp169_6 () (_ BitVec 64))
(declare-fun temp169_5 () (_ BitVec 64))
(declare-fun temp169_7 () (_ BitVec 64))
(declare-fun var265934 () (_ BitVec 64))
(declare-fun temp169_8 () (_ BitVec 64))
(declare-fun var1444007 () (_ BitVec 64))
(declare-fun var1444021 () (_ BitVec 64))
(declare-fun temp169_9 () (_ BitVec 64))
(declare-fun var1967537 () (_ BitVec 64))
(declare-fun var2033008 () (_ BitVec 64))
(declare-fun temp169_10 () (_ BitVec 64))
(declare-fun var2492895 () (_ BitVec 64))
(declare-fun temp169_11 () (_ BitVec 64))
(declare-fun var2557361 () (_ BitVec 64))
(declare-fun temp169_12 () (_ BitVec 64))
(declare-fun var66207 () (_ BitVec 64))
(assert (= temp169_2 #x0000000000000000))
(assert (= temp169_1 temp169_2))
(assert (= temp169_4 #x0000000000000000))
(assert (= temp169_3 temp169_4))
(assert (= temp169_6 #x0000000000000000))
(assert (= temp169_5 temp169_6))
(assert (= temp169_7 #x0000000000000000))
(assert (= var265934 temp169_7))
(assert (= temp169_8 #x0000000000000001))
(assert (= var1444007 temp169_8))
(assert (= var1444021 var1444007))
(assert (= temp169_9 #x0000000000000000))
(assert (= var1967537 temp169_9))
(assert (= var2033008 var1967537))
(assert (= temp169_10 #x0000000000000000))
(assert (= var2492895 temp169_10))
(assert (= temp169_11 #x0000000000000000))
(assert (= var2557361 temp169_11))
(assert (= temp169_12 #x0000000000000000))
(assert (= var66207 temp169_12))
(model-add temp169_2 () (_ BitVec 64) #x0000000000000000)
(model-add temp169_1 () (_ BitVec 64) #x0000000000000000)
(model-add temp169_4 () (_ BitVec 64) #x0000000000000000)
(model-add temp169_3 () (_ BitVec 64) #x0000000000000000)
(model-add temp169_6 () (_ BitVec 64) #x0000000000000000)
(model-add temp169_5 () (_ BitVec 64) #x0000000000000000)
(model-add temp169_7 () (_ BitVec 64) #x0000000000000000)
(model-add var265934 () (_ BitVec 64) #x0000000000000000)
(model-add temp169_8 () (_ BitVec 64) #x0000000000000001)
(model-add var1444007 () (_ BitVec 64) #x0000000000000001)
(model-add var1444021 () (_ BitVec 64) #x0000000000000001)
(model-add temp169_9 () (_ BitVec 64) #x0000000000000000)
(model-add var1967537 () (_ BitVec 64) #x0000000000000000)
(model-add var2033008 () (_ BitVec 64) #x0000000000000000)
(model-add temp169_10 () (_ BitVec 64) #x0000000000000000)
(model-add var2492895 () (_ BitVec 64) #x0000000000000000)
(model-add temp169_11 () (_ BitVec 64) #x0000000000000000)
(model-add var2557361 () (_ BitVec 64) #x0000000000000000)
(model-add temp169_12 () (_ BitVec 64) #x0000000000000000)
(model-add var66207 () (_ BitVec 64) #x0000000000000000)







